42 368
3 6 8 13 17 20 22 24 26 30 35 37 38 39 41
3 4 5 6 12 14 20 23 26 29 32 35 38 41
4 9 12 15 18 20 24 25 26 27 30 31 33 36 37 38 39
0 1 6 10 11 17 23 25 30 31 32 35 39
1 2 5 7 12 13 15 16 17 18 19 20 21 22 25 27 28 29 30 31 34 35 37 38 41
1 4 8 9 11 13 14 17 18 19 25 28 29 30 31 32 33 36 38 39
0 1 3 8 9 12 13 17 21 23 24 25 27 31 33 38 39 41
4 9 10 14 15 17 21 23 30 34 36 40
0 5 6 9 11 13 14 16 17 19 21 22 23 26 28 32 33 34 37 41
2 5 6 7 8 10 11 12 15 16 19 21 22 23 28 29 30 35 38 39 40
3 7 9 13 19 20 21 23 25 27 28 32 35 36 38 39 40
3 5 8 9 13 14 15 16 19 21 25 26 32 33 34 35 37 38 39 40 41
1 2 4 6 9 13 15 16 19 20 21 24 26 28 30 33 37 39
0 4 5 6 8 10 11 12 16 19 22 24 26 27 28 30 31 33 38
1 5 7 8 11 15 25 29 32 33 34 35 39 40
2 4 7 9 11 12 14 16 18 19 22 24 25 26 28 31 36 37 38 39
4 8 9 11 12 13 15 17 20 21 29 33 35 41
0 3 4 5 6 7 8 16 19 22 23 24 25 26 31 33 36 40
2 4 5 15 21 23 24 33 34 38 39
4 5 8 9 10 11 12 13 15 17 20 21 22 23 28 30 31 32 36 41
0 1 2 4 10 12 16 19 21 25 27 29 31 32 34 36 39 40
4 6 7 8 9 10 11 12 16 18 19 20 23 24 25 27 28 32 33 35 36 38
0 4 8 9 13 15 17 19 25 26 30 32 33 35 39 40
1 3 6 7 8 9 10 17 18 19 21 25 26 27 28 29 30 31 35 40 41
0 2 6 12 13 15 17 18 21 27 30 39
2 3 4 5 6 10 11 14 15 17 20 21 22 23 27 28 32 33 34 35 40
0 1 2 8 11 12 13 15 17 22 23 29 30 33 35 36 40 41
2 4 6 10 13 20 21 23 24 25 31 37
4 5 8 9 10 12 13 15 19 21 23 25 29 31 36 38 40 41
1 4 5 9 14 16 20 23 26 28 31 32 38 40 41
0 2 3 4 5 7 9 12 13 19 22 23 24 26 34 35 39
2 3 4 5 6 13 15 17 19 20 23 27 28 29 32 34 36 37 39 40 41
1 3 5 8 10 11 14 19 20 21 22 25 29 31 36 38 40
2 5 6 8 11 12 13 14 16 17 18 21 22 25 26 34 35 36 38 41
4 7 8 11 14 18 20 25 30 31 33 35
0 1 3 4 9 10 11 14 16 21 22 23 25 26 30 33 34 37 39 40 41
2 5 7 10 15 17 19 20 21 26 28 31 32 33 37 38 41
0 2 4 8 11 12 15 27 31 35 36 38 39 41
0 1 2 4 5 6 9 10 11 13 15 18 21 28 29 32 33 36 37 39 40
0 2 3 5 6 9 10 11 12 14 15 18 20 22 24 30 31 35 37 38 41
7 9 10 11 14 17 20 22 23 25 26 28 29 31 32 35 38
0 1 4 6 8 11 16 19 23 26 28 29 31 33 35 36 37 39
